7500
12
23
30
35
20
29
40
47
59
60
62
64
68
72
81
83
91
93
4
5
6
10
19
21
55
27
28
31
38
43
46
53
54
56
58
76
85
88
94
95
97
1
3
9
14
18
24
32
33
34
36
41
42
44
49
57
61
63
65
67
69
70
75
77
84
86
89
99
8
11
13
15
16
17
22
26
37
45
48
52
66
80
87
98
7
25
50
51
71
74
78
79
90
96
82
92
2
100
39
73
